SAT
-146 -11 -147 -42 -148 -150 -140 -144 44 142 -62 101 -90 66 -112 9 73 -132 93 38 54 135 2 -48 -87 -65 39 102 -76 116 -92 58 145 -129 -56 16 24 -29 -52 -59 131 31 61 -64 -49 -133 -53 50 127 111 -60 41 128 105 119 -110 -19 -123 82 -121 -109 -74 -91 -12 -80 -17 75 -115 -45 -32 63 33 -21 -96 -14 -15 -5 -99 -37 -83 -78 125 -117 -86 51 113 -1 -79 69 -3 122 -47 94 -100 -71 -46 18 -6 106 84 -124 81 104 20 -35 120 95 26 34 -68 -85 126 -137 139 -8 -70 -98 -22 -103 -10 55 134 30 57 72 77 -43 -149 -114 -130 -107 36 108 143 -136 40 -7 -4 -13 89 97 25 27 138 28 118 -141 67 88 -23 0
